data_cache_benchmarks/edn/edn.lp
Maximize

70 dSta_0 + 136 d0_30 + 34 d1_2.v0 + 34 d1_2.v1 + 106 d1_1.v0 + 46 d1_1.v1 + 67 d2_29 + 33 d3_4.v0 + 33 d3_4.v1 + 44 d3_3.v0 + 14 d3_3.v1 + 2 d4_25 + 46 d5_24.v0 + 16 d5_24.v1 + 36 d6_7.v00 + 36 d6_7.v01 + 36 d6_7.v10 + 36 d6_7.v11 + 46 d6_6.v00 + 16 d6_6.v01 + 16 d6_6.v10 + 16 d6_6.v11 + 34 d7_8.v0 + 34 d7_8.v1 + 2 d7_5.v0 + 2 d7_5.v1 + 66 d8_20 + 182 d9_19.v0 + 95 d9_19.v1 + 41 d10_11.v00 + 41 d10_11.v01 + 41 d10_11.v10 + 41 d10_11.v11 + 182 d10_10.v00 + 95 d10_10.v01 + 95 d10_10.v10 + 95 d10_10.v11 + 42 d11_12.v0 + 42 d11_12.v1 + 37 d11_9.v0 + 7 d11_9.v1 + 137 d12_18 + 98 d13_14.v0 + 98 d13_14.v1 + 82 d13_13.v0 + 52 d13_13.v1 + 238 d14_17 + 64 d15_16.v0 + 64 d15_16.v1 + 186 d15_15.v0 + 68 d15_15.v1 + 186 d17_15 + 64 d17_16 + 82 d18_13 + 98 d18_14 + 182 d19_10.v0 + 95 d19_10.v1 + 41 d19_11.v0 + 41 d19_11.v1 + 240 d20_23 + 96 d21_22.v0 + 96 d21_22.v1 + 182 d21_21.v0 + 36 d21_21.v1 + 37 d22_9 + 42 d22_12 + 182 d23_21 + 96 d23_22 + 46 d24_6.v0 + 16 d24_6.v1 + 36 d24_7.v0 + 36 d24_7.v1 + 104 d25_28 + 65 d26_27.v0 + 65 d26_27.v1 + 46 d26_26.v0 + 16 d26_26.v1 + 2 d27_5 + 34 d27_8 + 46 d28_26 + 65 d28_27 + 44 d29_3 + 33 d29_4 + 106 d30_1 + 34 d30_2


Subject to


\ === tcfg constraints ===
dSta_0 = 1
b0 - d0_30 = 0
b0 - dSta_0 = 0
b1 - d1_2 - d1_1 = 0
b1 - d1_1 - d30_1 = 0
b2 - d2_29 = 0
b2 - d1_2 - d30_2 = 0
b3 - d3_4 - d3_3 = 0
b3 - d3_3 - d29_3 = 0
b4 - d4_25 = 0
b4 - d3_4 - d29_4 = 0
b5 - d5_24 = 0
b5 - d7_5 - d27_5 = 0
b6 - d6_7 - d6_6 = 0
b6 - d6_6 - d24_6 = 0
b7 - d7_8 - d7_5 = 0
b7 - d6_7 - d24_7 = 0
b8 - d8_20 = 0
b8 - d7_8 - d27_8 = 0
b9 - d9_19 = 0
b9 - d11_9 - d22_9 = 0
b10 - d10_11 - d10_10 = 0
b10 - d10_10 - d19_10 = 0
b11 - d11_12 - d11_9 = 0
b11 - d10_11 - d19_11 = 0
b12 - d12_18 = 0
b12 - d11_12 - d22_12 = 0
b13 - d13_14 - d13_13 = 0
b13 - d13_13 - d18_13 = 0
b14 - d14_17 = 0
b14 - d13_14 - d18_14 = 0
b15 - d15_16 - d15_15 = 0
b15 - d15_15 - d17_15 = 0
b16 - d15_16 - d17_16 = 0
b17 - d17_15 - d17_16 = 0
b17 - d14_17 = 0
b18 - d18_13 - d18_14 = 0
b18 - d12_18 = 0
b19 - d19_10 - d19_11 = 0
b19 - d9_19 = 0
b20 - d20_23 = 0
b20 - d8_20 = 0
b21 - d21_22 - d21_21 = 0
b21 - d21_21 - d23_21 = 0
b22 - d22_9 - d22_12 = 0
b22 - d21_22 - d23_22 = 0
b23 - d23_21 - d23_22 = 0
b23 - d20_23 = 0
b24 - d24_6 - d24_7 = 0
b24 - d5_24 = 0
b25 - d25_28 = 0
b25 - d4_25 = 0
b26 - d26_27 - d26_26 = 0
b26 - d26_26 - d28_26 = 0
b27 - d27_5 - d27_8 = 0
b27 - d26_27 - d28_27 = 0
b28 - d28_26 - d28_27 = 0
b28 - d25_28 = 0
b29 - d29_3 - d29_4 = 0
b29 - d2_29 = 0
b30 - d30_1 - d30_2 = 0
b30 - d0_30 = 0


\ === context constraints ===

\(a)
d1_2 - d1_2.v0 - d1_2.v1 = 0
d1_1 - d1_1.v0 - d1_1.v1 = 0
d3_4 - d3_4.v0 - d3_4.v1 = 0
d3_3 - d3_3.v0 - d3_3.v1 = 0
d5_24 - d5_24.v0 - d5_24.v1 = 0
d6_7 - d6_7.v00 - d6_7.v01 - d6_7.v10 - d6_7.v11 = 0
d6_6 - d6_6.v00 - d6_6.v01 - d6_6.v10 - d6_6.v11 = 0
d7_8 - d7_8.v0 - d7_8.v1 = 0
d7_5 - d7_5.v0 - d7_5.v1 = 0
d9_19 - d9_19.v0 - d9_19.v1 = 0
d10_11 - d10_11.v00 - d10_11.v01 - d10_11.v10 - d10_11.v11 = 0
d10_10 - d10_10.v00 - d10_10.v01 - d10_10.v10 - d10_10.v11 = 0
d11_12 - d11_12.v0 - d11_12.v1 = 0
d11_9 - d11_9.v0 - d11_9.v1 = 0
d13_14 - d13_14.v0 - d13_14.v1 = 0
d13_13 - d13_13.v0 - d13_13.v1 = 0
d15_16 - d15_16.v0 - d15_16.v1 = 0
d15_15 - d15_15.v0 - d15_15.v1 = 0
d19_10 - d19_10.v0 - d19_10.v1 = 0
d19_11 - d19_11.v0 - d19_11.v1 = 0
d21_22 - d21_22.v0 - d21_22.v1 = 0
d21_21 - d21_21.v0 - d21_21.v1 = 0
d24_6 - d24_6.v0 - d24_6.v1 = 0
d24_7 - d24_7.v0 - d24_7.v1 = 0
d26_27 - d26_27.v0 - d26_27.v1 = 0
d26_26 - d26_26.v0 - d26_26.v1 = 0

\(b)
b1.v0 - d1_2.v0 - d1_1.v0 = 0
b1.v1 - d1_2.v1 - d1_1.v1 = 0
b3.v0 - d3_4.v0 - d3_3.v0 = 0
b3.v1 - d3_4.v1 - d3_3.v1 = 0
b5.v0 - d5_24.v0 = 0
b5.v1 - d5_24.v1 = 0
b6.v00 - d6_7.v00 - d6_6.v00 = 0
b6.v01 - d6_7.v01 - d6_6.v01 = 0
b6.v10 - d6_7.v10 - d6_6.v10 = 0
b6.v11 - d6_7.v11 - d6_6.v11 = 0
b7.v0 - d7_8.v0 - d7_5.v0 = 0
b7.v1 - d7_8.v1 - d7_5.v1 = 0
b9.v0 - d9_19.v0 = 0
b9.v1 - d9_19.v1 = 0
b10.v00 - d10_11.v00 - d10_10.v00 = 0
b10.v01 - d10_11.v01 - d10_10.v01 = 0
b10.v10 - d10_11.v10 - d10_10.v10 = 0
b10.v11 - d10_11.v11 - d10_10.v11 = 0
b11.v0 - d11_12.v0 - d11_9.v0 = 0
b11.v1 - d11_12.v1 - d11_9.v1 = 0
b13.v0 - d13_14.v0 - d13_13.v0 = 0
b13.v1 - d13_14.v1 - d13_13.v1 = 0
b15.v0 - d15_16.v0 - d15_15.v0 = 0
b15.v1 - d15_16.v1 - d15_15.v1 = 0
b19.v0 - d19_10.v0 - d19_11.v0 = 0
b19.v1 - d19_10.v1 - d19_11.v1 = 0
b21.v0 - d21_22.v0 - d21_21.v0 = 0
b21.v1 - d21_22.v1 - d21_21.v1 = 0
b24.v0 - d24_6.v0 - d24_7.v0 = 0
b24.v1 - d24_6.v1 - d24_7.v1 = 0
b26.v0 - d26_27.v0 - d26_26.v0 = 0
b26.v1 - d26_27.v1 - d26_26.v1 = 0

\(c)
b1 - b1.v0 - b1.v1 = 0
b3 - b3.v0 - b3.v1 = 0
b5 - b5.v0 - b5.v1 = 0
b6 - b6.v00 - b6.v01 - b6.v10 - b6.v11 = 0
b7 - b7.v0 - b7.v1 = 0
b9 - b9.v0 - b9.v1 = 0
b10 - b10.v00 - b10.v01 - b10.v10 - b10.v11 = 0
b11 - b11.v0 - b11.v1 = 0
b13 - b13.v0 - b13.v1 = 0
b15 - b15.v0 - b15.v1 = 0
b19 - b19.v0 - b19.v1 = 0
b21 - b21.v0 - b21.v1 = 0
b24 - b24.v0 - b24.v1 = 0
b26 - b26.v0 - b26.v1 = 0

\(d)
b1.v0 - d30_1 = 0
b3.v0 - d29_3 = 0
b6.v00 - d24_6.v0 = 0
b6.v10 - d24_6.v1 = 0
b5.v0 - d27_5 = 0
b10.v00 - d19_10.v0 = 0
b10.v10 - d19_10.v1 = 0
b9.v0 - d22_9 = 0
b13.v0 - d18_13 = 0
b15.v0 - d17_15 = 0
b21.v0 - d23_21 = 0
b26.v0 - d28_26 = 0

\(e)
b1.v1 - d1_1.v0 - d1_1.v1 = 0
b1.v1 - 2046 d1_1.v0 <= 0
b3.v1 - d3_3.v0 - d3_3.v1 = 0
b3.v1 - 2046 d3_3.v0 <= 0
b6.v01 - d6_6.v00 - d6_6.v01 = 0
b6.v01 - 48 d6_6.v00 <= 0
b6.v11 - d6_6.v10 - d6_6.v11 = 0
b6.v11 - 48 d6_6.v10 <= 0
b5.v1 - d7_5.v0 - d7_5.v1 = 0
b5.v1 - 1996 d7_5.v0 <= 0
b10.v01 - d10_10.v00 - d10_10.v01 = 0
b10.v01 - 14 d10_10.v00 <= 0
b10.v11 - d10_10.v10 - d10_10.v11 = 0
b10.v11 - 14 d10_10.v10 <= 0
b9.v1 - d11_9.v0 - d11_9.v1 = 0
b9.v1 - 1022 d11_9.v0 <= 0
b13.v1 - d13_13.v0 - d13_13.v1 = 0
b13.v1 - 2044 d13_13.v0 <= 0
b15.v1 - d15_15.v0 - d15_15.v1 = 0
b15.v1 - 510 d15_15.v0 <= 0
b21.v1 - d21_21.v0 - d21_21.v1 = 0
b21.v1 - 14 d21_21.v0 <= 0
b26.v1 - d26_26.v0 - d26_26.v1 = 0
b26.v1 - 48 d26_26.v0 <= 0

\(f)
d1_2 - d1_2.v0 - d1_2.v1 = 0
d3_4 - d3_4.v0 - d3_4.v1 = 0
d6_7.v0 - d6_7.v00 - d6_7.v01 = 0
d6_7.v1 - d6_7.v10 - d6_7.v11 = 0
d7_8 - d7_8.v0 - d7_8.v1 = 0
d10_11.v0 - d10_11.v00 - d10_11.v01 = 0
d10_11.v1 - d10_11.v10 - d10_11.v11 = 0
d11_12 - d11_12.v0 - d11_12.v1 = 0
d13_14 - d13_14.v0 - d13_14.v1 = 0
d15_16 - d15_16.v0 - d15_16.v1 = 0
d21_22 - d21_22.v0 - d21_22.v1 = 0
d26_27 - d26_27.v0 - d26_27.v1 = 0

\(g)
b7.v0 - d6_7.v0 - d24_7.v0 = 0
b7.v1 - d6_7.v1 - d24_7.v1 = 0
b11.v0 - d10_11.v0 - d19_11.v0 = 0
b11.v1 - d10_11.v1 - d19_11.v1 = 0
b19.v0 - d9_19.v0 = 0
b19.v1 - d9_19.v1 = 0
b24.v0 - d5_24.v0 = 0
b24.v1 - d5_24.v1 = 0

\ === header constraints ===
b0 <= 1
b1 - 2047 b0 <= 0
b1 - 2047 d30_1 <= 0
b3 - 2047 b0 <= 0
b3 - 2047 d29_3 <= 0
b6 - 49 b5 <= 0
b6 - 49 d24_6 <= 0
b5 - 1997 b0 <= 0
b5 - 1997 d27_5 <= 0
b10 - 15 b9 <= 0
b10 - 15 d19_10 <= 0
b9 - 1023 b0 <= 0
b9 - 1023 d22_9 <= 0
b13 - 2045 b0 <= 0
b13 - 2045 d18_13 <= 0
b15 - 511 b0 <= 0
b15 - 511 d17_15 <= 0
b21 - 15 b0 <= 0
b21 - 15 d23_21 <= 0
b26 - 49 b0 <= 0
b26 - 49 d28_26 <= 0

Generals

Sta
b0
d0_30
b1
d1_2
d1_1
b2
d2_29
b3
d3_4
d3_3
b4
d4_25
b5
d5_24
b6
d6_7
d6_6
b7
d7_8
d7_5
b8
d8_20
b9
d9_19
b10
d10_11
d10_10
b11
d11_12
d11_9
b12
d12_18
b13
d13_14
d13_13
b14
d14_17
b15
d15_16
d15_15
b16
b17
d17_15
d17_16
b18
d18_13
d18_14
b19
d19_10
d19_11
b20
d20_23
b21
d21_22
d21_21
b22
d22_9
d22_12
b23
d23_21
d23_22
b24
d24_6
d24_7
b25
d25_28
b26
d26_27
d26_26
b27
d27_5
d27_8
b28
d28_26
d28_27
b29
d29_3
d29_4
b30
d30_1
d30_2
b0.d0
b1.d0
b1.d1
b1.d2
b2.d0
b3.d0
b3.d1
b4.d0
b6.d0
b6.d1
b7.d0
b9.d0
b10.d0
b10.d1
b10.d2
b10.d3
b10.d4
b11.d0
b11.d1
b12.d0
b12.d1
b13.d0
b13.d1
b13.d2
b14.d0
b14.d1
b15.d0
b15.d1
b15.d2
b15.d3
b15.d4
b15.d5
b15.d6
b15.d7
b16.d0
b16.d1
b17.d0
b17.d1
b17.d2
b17.d3
b17.d4
b17.d5
b17.d6
b17.d7
b18.d0
b18.d1
b18.d2
b19.d0
b19.d1
b19.d2
b19.d3
b19.d4
b20.d0
b21.d0
b21.d1
b21.d2
b21.d3
b21.d4
b22.d0
b22.d1
b23.d0
b23.d1
b23.d2
b23.d3
b23.d4
b24.d0
b24.d1
b26.d0
b26.d1
b27.d0
b28.d0
b28.d1
b29.d0
b29.d1
b30.d0
b30.d1
b30.d2
d0_30
d1_2.v0
d1_2.v1
d1_1.v0
d1_1.v1
d2_29
d3_4.v0
d3_4.v1
d3_3.v0
d3_3.v1
d4_25
d5_24.v0
d5_24.v1
d6_7.v00
d6_7.v01
d6_7.v10
d6_7.v11
d6_6.v00
d6_6.v01
d6_6.v10
d6_6.v11
d7_8.v0
d7_8.v1
d7_5.v0
d7_5.v1
d8_20
d9_19.v0
d9_19.v1
d10_11.v00
d10_11.v01
d10_11.v10
d10_11.v11
d10_10.v00
d10_10.v01
d10_10.v10
d10_10.v11
d11_12.v0
d11_12.v1
d11_9.v0
d11_9.v1
d12_18
d13_14.v0
d13_14.v1
d13_13.v0
d13_13.v1
d14_17
d15_16.v0
d15_16.v1
d15_15.v0
d15_15.v1
d17_15
d17_16
d18_13
d18_14
d19_10.v0
d19_10.v1
d19_11.v0
d19_11.v1
d20_23
d21_22.v0
d21_22.v1
d21_21.v0
d21_21.v1
d22_9
d22_12
d23_21
d23_22
d24_6.v0
d24_6.v1
d24_7.v0
d24_7.v1
d25_28
d26_27.v0
d26_27.v1
d26_26.v0
d26_26.v1
d27_5
d27_8
d28_26
d28_27
d29_3
d29_4
d30_1
d30_2

End
\ total_cons: 210 	total_vars: 159
